(declare-const a Real)
(declare-const b Real)
(declare-const c Real)
(declare-const d Real)
(assert (= (+ a b c d) 4))
(assert (> a 0))
(assert (> b 0))
(assert (> c 0))
(assert (> d 0))
(assert (not (<= (+ 1 (* (pow (* a b (pow (+ (pow c 3) (* 63 a b d)) (* (/ -1 3) c)) (pow (+ (* (/ 1 2) (pow (+ (pow a 3) (* 63 b c d)) (pow 3 -1))) (* (/ 1 2) (pow (+ (pow b 3) (* 63 a c d)) (pow 3 -1)))) -2)) (pow (+ 2 c) -1)) (+ -2 (* -1 c))) (* -1 d (pow (+ (pow d 3) (* 63 a b c)) (/ -1 3)))) 0)))
(check-sat)
(get-model)
(exit)